networks/zoo_44_93/zoo_44_93-lower.sol
<?xml version = "1.0" encoding="UTF-8" standalone="yes"?>
<CPLEXSolution version="1.2">
 <header
   problemName="networks/zoo_44_93/zoo_44_93-lower.lp"
   solutionName="incumbent"
   solutionIndex="-1"
   objectiveValue="20"
   solutionTypeValue="3"
   solutionTypeString="primal"
   solutionStatusValue="101"
   solutionStatusString="integer optimal solution"
   solutionMethodString="mip"
   primalFeasible="1"
   dualFeasible="1"
   MIPNodes="0"
   MIPIterations="204"
   writeLevel="3"/>
 <quality
   epInt="1.0000000000000001e-05"
   epRHS="9.9999999999999995e-07"
   maxIntInfeas="0"
   maxPrimalInfeas="0"
   maxX="1"
   maxSlack="1"/>
 <variables>
  <variable name="Y(3,14)" index="80" value="1"/>
  <variable name="Y(7,21)" index="223" value="1"/>
  <variable name="Y(8,19)" index="255" value="1"/>
  <variable name="Y(11,13)" index="351" value="1"/>
  <variable name="Y(13,16)" index="422" value="1"/>
  <variable name="Y(19,2)" index="613" value="1"/>
  <variable name="Y(21,5)" index="684" value="1"/>
  <variable name="Y(22,8)" index="721" value="1"/>
  <variable name="Y(28,3)" index="920" value="1"/>
  <variable name="Y(30,22)" index="1006" value="1"/>
  <variable name="Y(41,20)" index="1378" value="1"/>
  <variable name="Y(55,20)" index="1854" value="1"/>
  <variable name="Y(56,12)" index="1880" value="1"/>
  <variable name="Y(57,10)" index="1912" value="1"/>
  <variable name="Y(58,1)" index="1938" value="1"/>
  <variable name="Y(59,17)" index="1987" value="1"/>
  <variable name="Y(82,18)" index="2770" value="1"/>
  <variable name="Y(84,1)" index="2822" value="1"/>
  <variable name="Y(86,4)" index="2893" value="1"/>
  <variable name="Y(88,14)" index="2970" value="1"/>
  <variable name="X(1,4,58)" index="3219" value="1"/>
  <variable name="X(1,16,13)" index="3267" value="1"/>
  <variable name="X(1,23,84)" index="3431" value="1"/>
  <variable name="X(2,3,11)" index="3451" value="1"/>
  <variable name="X(2,4,86)" index="3619" value="1"/>
  <variable name="X(2,10,41)" index="3667" value="1"/>
  <variable name="X(2,24,19)" index="3738" value="1"/>
  <variable name="X(3,2,19)" index="3831" value="1"/>
  <variable name="X(3,4,21)" index="3926" value="1"/>
  <variable name="X(3,10,28)" index="4026" value="1"/>
  <variable name="X(3,13,11)" index="4102" value="1"/>
  <variable name="X(4,1,13)" index="4197" value="1"/>
  <variable name="X(4,2,41)" index="4318" value="1"/>
  <variable name="X(4,7,21)" index="4391" value="1"/>
  <variable name="X(4,26,86)" index="4549" value="1"/>
  <variable name="X(5,8,41)" index="4597" value="1"/>
  <variable name="X(5,27,21)" index="4670" value="1"/>
  <variable name="X(6,5,41)" index="4783" value="1"/>
  <variable name="X(7,4,41)" index="4876" value="1"/>
  <variable name="X(7,8,21)" index="4949" value="1"/>
  <variable name="X(8,5,21)" index="5042" value="1"/>
  <variable name="X(8,7,41)" index="5155" value="1"/>
  <variable name="X(8,30,22)" index="5229" value="1"/>
  <variable name="X(10,2,86)" index="5386" value="1"/>
  <variable name="X(10,14,3)" index="5396" value="1"/>
  <variable name="X(10,20,41)" index="5527" value="1"/>
  <variable name="X(10,32,57)" index="5636" value="1"/>
  <variable name="X(11,22,55)" index="5727" value="1"/>
  <variable name="X(12,22,56)" index="5821" value="1"/>
  <variable name="X(13,14,30)" index="5888" value="1"/>
  <variable name="X(13,35,11)" index="5962" value="1"/>
  <variable name="X(14,10,57)" index="6101" value="1"/>
  <variable name="X(14,13,88)" index="6225" value="1"/>
  <variable name="X(14,21,30)" index="6260" value="1"/>
  <variable name="X(14,36,3)" index="6326" value="1"/>
  <variable name="X(15,1,58)" index="6474" value="1"/>
  <variable name="X(15,16,59)" index="6568" value="1"/>
  <variable name="X(16,1,84)" index="6686" value="1"/>
  <variable name="X(16,17,59)" index="6754" value="1"/>
  <variable name="X(16,38,13)" index="6801" value="1"/>
  <variable name="X(17,16,84)" index="6965" value="1"/>
  <variable name="X(17,18,82)" index="7056" value="1"/>
  <variable name="X(17,20,7)" index="7074" value="1"/>
  <variable name="X(17,39,59)" index="7219" value="1"/>
  <variable name="X(18,17,84)" index="7337" value="1"/>
  <variable name="X(18,19,8)" index="7354" value="1"/>
  <variable name="X(18,40,82)" index="7521" value="1"/>
  <variable name="X(19,18,84)" index="7616" value="1"/>
  <variable name="X(19,20,55)" index="7680" value="1"/>
  <variable name="X(19,22,8)" index="7726" value="1"/>
  <variable name="X(20,10,55)" index="7866" value="1"/>
  <variable name="X(20,17,82)" index="7986" value="1"/>
  <variable name="X(20,19,41)" index="8038" value="1"/>
  <variable name="X(20,21,7)" index="8097" value="1"/>
  <variable name="X(21,14,88)" index="8271" value="1"/>
  <variable name="X(21,20,82)" index="8358" value="1"/>
  <variable name="X(21,22,30)" index="8399" value="1"/>
  <variable name="X(21,43,7)" index="8469" value="1"/>
  <variable name="X(22,19,55)" index="8610" value="1"/>
  <variable name="X(22,21,88)" index="8736" value="1"/>
  <variable name="X(22,44,30)" index="8771" value="1"/>
 </variables>
</CPLEXSolution>
